892181
474179
418521
97075
66992
955353
524278
236378
703630
668007
582287
901355
681542
49917
571293
845773
145509
727733
878026
225132
651313
282381
211016
229474
655819
771686
519359
317633
273965
269848
414750
631999
234195
420272
689491
574463
261111
646215
678805
713400
753524
952128
109854
847492
879436
620125
838647
636935
227461
223358
576619
99514
350446
450232
887453
144211
484031
510414
861494
958547
165342
598671
836214
663340
770942
627211
485292
915148
434466
833203
265729
202
303680
640716
849326
387500
379008
810576
268173
996498
96803
853281
135053
636355
488257
42923
489280
716627
870762
69717
111951
216237
885806
539363
744653
232899
167033
763307
529128
459087
